-321 -361 0
-357 321 0
-361 0
321 0
-41 0
1 0
81 0
-281 0
-121 0
21 0
-161 0
-61 0
-181 0
-241 0
11 0
31 0
341 0
-101 0
-51 0
-6 0
-111 0
-46 0
-221 0
-171 0
-231 0
-71 0
-131 0
-191 0
-251 0
-301 0
0
